(set-logic QF_S)
(declare-fun var0 () String)
(declare-fun var1 () String)
(declare-fun var2 () String)
(declare-fun var3 () String)
(declare-fun var4 () Int)
(declare-fun var5 () Int)
(declare-fun var6 () Int)
(declare-fun var7 () Int)
(assert (not (str.contains var0 "}MB7a")))
(assert (str.suffixof (str.replace var1 var2 var3) (str.substr var2 var4 var5)))
(assert (<= (str.indexof var0 var1 var6) (str.indexof var2 var3 var7)))
(assert (str.prefixof var3 var3))
(check-sat)